decision_x1=[0,2];
decision_x2=[0,2];
decision_x3=[0,2];
decision_x4=[0,2];
decision_x5=[0,2];
random_y1=[0,2];
constraint_x3_x2=[
0,1,3|
0,2,2.3|
1,0,8.2|
1,2,2.2|
2,0,9.5|
2,1,1.5|
];
constraint_x4_x1=[
0,1,4.1|
0,2,9.9|
1,0,7.8|
1,2,6.5|
2,0,0.33|
2,1,6.2|
];
constraint_x4_x2=[
0,1,1.3|
0,2,6.6|
1,0,2.8|
1,2,1.5|
2,0,4.4|
2,1,7|
];
constraint_x4_x3=[
0,1,3.5|
0,2,8.2|
1,0,2.7|
1,2,9.1|
2,0,4.6|
2,1,6.2|
];
constraint_x5_x4=[
0,1,4.3|
0,2,8.1|
1,0,6.1|
1,2,8.7|
2,0,0.11|
2,1,7.4|
];
constraint_x1_y1=[
0,0,4.9|
0,1,0.15|
0,2,0.14|
1,0,7.1|
1,1,0.3|
1,2,3.1|
2,0,3.8|
2,1,5.6|
2,2,7.2|
];
initial_distribution_y1=[0.38,0.35,0.27];
transition_y1=[
0.28,0.42,0.3|
0.3,0.53,0.18|
0.026,0.63,0.34|
];
